p cnf 440 1494
c p weight 176 -1 0
c p weight -176 1 0
c p weight 178 6.12323399573676603586882014729198302312846062338790031898128063403419218957424163818359375E-17 0
c p weight -178 1 0
c p weight 179 1 0
c p weight -179 1 0
c p weight 180 -1 0
c p weight -180 1 0
c p weight 182 -1 0
c p weight -182 1 0
c p weight 185 -1 0
c p weight -185 1 0
c p weight 188 -1 0
c p weight -188 1 0
c p weight 191 -1 0
c p weight -191 1 0
c p weight 194 -1 0
c p weight -194 1 0
c p weight 197 -1 0
c p weight -197 1 0
c p weight 200 -1 0
c p weight -200 1 0
c p weight 203 -1 0
c p weight -203 1 0
c p weight 206 -1 0
c p weight -206 1 0
c p weight 209 -1 0
c p weight -209 1 0
c p weight 212 -1 0
c p weight -212 1 0
c p weight 215 -1 0
c p weight -215 1 0
c p weight 218 -1 0
c p weight -218 1 0
c p weight 221 -1 0
c p weight -221 1 0
c p weight 224 -1 0
c p weight -224 1 0
c p weight 227 -1 0
c p weight -227 1 0
c p weight 230 -1 0
c p weight -230 1 0
c p weight 233 -1 0
c p weight -233 1 0
c p weight 236 -1 0
c p weight -236 1 0
c p weight 239 -1 0
c p weight -239 1 0
c p weight 242 -1 0
c p weight -242 1 0
c p weight 245 -1 0
c p weight -245 1 0
c p weight 248 -1 0
c p weight -248 1 0
c p weight 251 -1 0
c p weight -251 1 0
c p weight 254 -1 0
c p weight -254 1 0
c p weight 257 -1 0
c p weight -257 1 0
c p weight 260 -1 0
c p weight -260 1 0
c p weight 263 -1 0
c p weight -263 1 0
c p weight 266 -1 0
c p weight -266 1 0
c p weight 269 -1 0
c p weight -269 1 0
c p weight 272 -1 0
c p weight -272 1 0
c p weight 275 -1 0
c p weight -275 1 0
c p weight 278 -1 0
c p weight -278 1 0
c p weight 281 -1 0
c p weight -281 1 0
c p weight 284 -1 0
c p weight -284 1 0
c p weight 287 -1 0
c p weight -287 1 0
c p weight 290 -1 0
c p weight -290 1 0
c p weight 293 -1 0
c p weight -293 1 0
c p weight 296 -1 0
c p weight -296 1 0
c p weight 299 -1 0
c p weight -299 1 0
c p weight 302 -1 0
c p weight -302 1 0
c p weight 305 -1 0
c p weight -305 1 0
c p weight 308 -1 0
c p weight -308 1 0
c p weight 311 -1 0
c p weight -311 1 0
c p weight 314 -1 0
c p weight -314 1 0
c p weight 317 -1 0
c p weight -317 1 0
c p weight 320 -1 0
c p weight -320 1 0
c p weight 323 -1 0
c p weight -323 1 0
c p weight 326 -1 0
c p weight -326 1 0
c p weight 329 -1 0
c p weight -329 1 0
c p weight 332 -1 0
c p weight -332 1 0
c p weight 335 -1 0
c p weight -335 1 0
c p weight 338 -1 0
c p weight -338 1 0
c p weight 341 -1 0
c p weight -341 1 0
c p weight 344 -1 0
c p weight -344 1 0
c p weight 347 -1 0
c p weight -347 1 0
c p weight 350 -1 0
c p weight -350 1 0
c p weight 353 -1 0
c p weight -353 1 0
c p weight 356 -1 0
c p weight -356 1 0
c p weight 359 -1 0
c p weight -359 1 0
c p weight 362 -1 0
c p weight -362 1 0
c p weight 365 -1 0
c p weight -365 1 0
c p weight 368 -1 0
c p weight -368 1 0
c p weight 371 -1 0
c p weight -371 1 0
c p weight 374 -1 0
c p weight -374 1 0
c p weight 377 -1 0
c p weight -377 1 0
c p weight 380 -1 0
c p weight -380 1 0
c p weight 383 -1 0
c p weight -383 1 0
c p weight 386 -1 0
c p weight -386 1 0
c p weight 389 -1 0
c p weight -389 1 0
c p weight 392 -1 0
c p weight -392 1 0
c p weight 395 -1 0
c p weight -395 1 0
c p weight 398 -1 0
c p weight -398 1 0
c p weight 401 -1 0
c p weight -401 1 0
c p weight 404 -1 0
c p weight -404 1 0
c p weight 407 -1 0
c p weight -407 1 0
c p weight 410 -1 0
c p weight -410 1 0
c p weight 413 -1 0
c p weight -413 1 0
c p weight 416 -1 0
c p weight -416 1 0
c p weight 419 -1 0
c p weight -419 1 0
c p weight 422 -1 0
c p weight -422 1 0
c p weight 425 -1 0
c p weight -425 1 0
c p weight 428 -1 0
c p weight -428 1 0
c p weight 431 -1 0
c p weight -431 1 0
c p weight 434 -1 0
c p weight -434 1 0
c p weight 437 -1 0
c p weight -437 1 0
c p weight 440 -1 0
c p weight -440 1 0
-173 0
-171 0
-169 0
-167 0
-165 0
-163 0
-161 0
-159 0
-157 0
-155 0
-153 0
-151 0
-149 0
-147 0
-145 0
-143 0
-141 0
-139 0
-137 0
-135 0
-133 0
-131 0
-129 0
-127 0
-125 0
-123 0
-121 0
-119 0
-117 0
-115 0
-113 0
-111 0
-109 0
-107 0
-105 0
-103 0
-101 0
-99 0
-97 0
-95 0
-93 0
-91 0
-89 0
-87 0
-85 0
-83 0
-81 0
-79 0
-77 0
-75 0
-73 0
-71 0
-69 0
-67 0
-65 0
-63 0
-61 0
-59 0
-57 0
-55 0
-53 0
-51 0
-49 0
-47 0
-45 0
-43 0
-41 0
-39 0
-37 0
-35 0
-33 0
-31 0
-29 0
-27 0
-25 0
-23 0
-21 0
-19 0
-17 0
-15 0
-13 0
-11 0
-9 0
-7 0
-5 0
-3 0
-1 0
175 173 -174 0
175 -173 174 0
-175 173 174 0
-175 -173 -174 0
-176 173 0
-176 174 0
176 -173 -174 0
177 -173 175 0
-177 173 175 0
-178 175 0
177 -178 -173 0
-177 -178 173 0
177 178 173 -175 0
-177 178 -173 -175 0
-179 175 0
177 -179 173 0
-177 -179 -173 0
177 179 -173 -175 0
-177 179 173 -175 0
-180 177 0
-180 175 0
-180 -173 0
180 -177 173 -175 0
181 177 -175 0
181 -177 175 0
-181 177 175 0
-181 -177 -175 0
-182 177 0
-182 175 0
182 -177 -175 0
183 177 -171 0
183 -177 171 0
-183 177 171 0
-183 -177 -171 0
184 181 -172 0
184 -181 172 0
-184 181 172 0
-184 -181 -172 0
-185 177 0
-185 172 0
-185 171 -181 0
-185 -171 181 0
185 -177 171 181 -172 0
185 -177 -171 -181 -172 0
186 183 -169 0
186 -183 169 0
-186 183 169 0
-186 -183 -169 0
187 172 -170 0
187 -172 170 0
-187 172 170 0
-187 -172 -170 0
-188 183 0
-188 170 0
-188 169 -172 0
-188 -169 172 0
188 -183 169 172 -170 0
188 -183 -169 -172 -170 0
189 186 -167 0
189 -186 167 0
-189 186 167 0
-189 -186 -167 0
190 170 -168 0
190 -170 168 0
-190 170 168 0
-190 -170 -168 0
-191 186 0
-191 168 0
-191 167 -170 0
-191 -167 170 0
191 -186 167 170 -168 0
191 -186 -167 -170 -168 0
192 189 -165 0
192 -189 165 0
-192 189 165 0
-192 -189 -165 0
193 168 -166 0
193 -168 166 0
-193 168 166 0
-193 -168 -166 0
-194 189 0
-194 166 0
-194 165 -168 0
-194 -165 168 0
194 -189 165 168 -166 0
194 -189 -165 -168 -166 0
195 192 -163 0
195 -192 163 0
-195 192 163 0
-195 -192 -163 0
196 166 -164 0
196 -166 164 0
-196 166 164 0
-196 -166 -164 0
-197 192 0
-197 164 0
-197 163 -166 0
-197 -163 166 0
197 -192 163 166 -164 0
197 -192 -163 -166 -164 0
198 195 -161 0
198 -195 161 0
-198 195 161 0
-198 -195 -161 0
199 164 -162 0
199 -164 162 0
-199 164 162 0
-199 -164 -162 0
-200 195 0
-200 162 0
-200 161 -164 0
-200 -161 164 0
200 -195 161 164 -162 0
200 -195 -161 -164 -162 0
201 198 -159 0
201 -198 159 0
-201 198 159 0
-201 -198 -159 0
202 162 -160 0
202 -162 160 0
-202 162 160 0
-202 -162 -160 0
-203 198 0
-203 160 0
-203 159 -162 0
-203 -159 162 0
203 -198 159 162 -160 0
203 -198 -159 -162 -160 0
204 201 -157 0
204 -201 157 0
-204 201 157 0
-204 -201 -157 0
205 160 -158 0
205 -160 158 0
-205 160 158 0
-205 -160 -158 0
-206 201 0
-206 158 0
-206 157 -160 0
-206 -157 160 0
206 -201 157 160 -158 0
206 -201 -157 -160 -158 0
207 204 -155 0
207 -204 155 0
-207 204 155 0
-207 -204 -155 0
208 158 -156 0
208 -158 156 0
-208 158 156 0
-208 -158 -156 0
-209 204 0
-209 156 0
-209 155 -158 0
-209 -155 158 0
209 -204 155 158 -156 0
209 -204 -155 -158 -156 0
210 207 -153 0
210 -207 153 0
-210 207 153 0
-210 -207 -153 0
211 156 -154 0
211 -156 154 0
-211 156 154 0
-211 -156 -154 0
-212 207 0
-212 154 0
-212 153 -156 0
-212 -153 156 0
212 -207 153 156 -154 0
212 -207 -153 -156 -154 0
213 210 -151 0
213 -210 151 0
-213 210 151 0
-213 -210 -151 0
214 154 -152 0
214 -154 152 0
-214 154 152 0
-214 -154 -152 0
-215 210 0
-215 152 0
-215 151 -154 0
-215 -151 154 0
215 -210 151 154 -152 0
215 -210 -151 -154 -152 0
216 213 -149 0
216 -213 149 0
-216 213 149 0
-216 -213 -149 0
217 152 -150 0
217 -152 150 0
-217 152 150 0
-217 -152 -150 0
-218 213 0
-218 150 0
-218 149 -152 0
-218 -149 152 0
218 -213 149 152 -150 0
218 -213 -149 -152 -150 0
219 216 -147 0
219 -216 147 0
-219 216 147 0
-219 -216 -147 0
220 150 -148 0
220 -150 148 0
-220 150 148 0
-220 -150 -148 0
-221 216 0
-221 148 0
-221 147 -150 0
-221 -147 150 0
221 -216 147 150 -148 0
221 -216 -147 -150 -148 0
222 219 -145 0
222 -219 145 0
-222 219 145 0
-222 -219 -145 0
223 148 -146 0
223 -148 146 0
-223 148 146 0
-223 -148 -146 0
-224 219 0
-224 146 0
-224 145 -148 0
-224 -145 148 0
224 -219 145 148 -146 0
224 -219 -145 -148 -146 0
225 222 -143 0
225 -222 143 0
-225 222 143 0
-225 -222 -143 0
226 146 -144 0
226 -146 144 0
-226 146 144 0
-226 -146 -144 0
-227 222 0
-227 144 0
-227 143 -146 0
-227 -143 146 0
227 -222 143 146 -144 0
227 -222 -143 -146 -144 0
228 225 -141 0
228 -225 141 0
-228 225 141 0
-228 -225 -141 0
229 144 -142 0
229 -144 142 0
-229 144 142 0
-229 -144 -142 0
-230 225 0
-230 142 0
-230 141 -144 0
-230 -141 144 0
230 -225 141 144 -142 0
230 -225 -141 -144 -142 0
231 228 -139 0
231 -228 139 0
-231 228 139 0
-231 -228 -139 0
232 142 -140 0
232 -142 140 0
-232 142 140 0
-232 -142 -140 0
-233 228 0
-233 140 0
-233 139 -142 0
-233 -139 142 0
233 -228 139 142 -140 0
233 -228 -139 -142 -140 0
234 231 -137 0
234 -231 137 0
-234 231 137 0
-234 -231 -137 0
235 140 -138 0
235 -140 138 0
-235 140 138 0
-235 -140 -138 0
-236 231 0
-236 138 0
-236 137 -140 0
-236 -137 140 0
236 -231 137 140 -138 0
236 -231 -137 -140 -138 0
237 234 -135 0
237 -234 135 0
-237 234 135 0
-237 -234 -135 0
238 138 -136 0
238 -138 136 0
-238 138 136 0
-238 -138 -136 0
-239 234 0
-239 136 0
-239 135 -138 0
-239 -135 138 0
239 -234 135 138 -136 0
239 -234 -135 -138 -136 0
240 237 -133 0
240 -237 133 0
-240 237 133 0
-240 -237 -133 0
241 136 -134 0
241 -136 134 0
-241 136 134 0
-241 -136 -134 0
-242 237 0
-242 134 0
-242 133 -136 0
-242 -133 136 0
242 -237 133 136 -134 0
242 -237 -133 -136 -134 0
243 240 -131 0
243 -240 131 0
-243 240 131 0
-243 -240 -131 0
244 134 -132 0
244 -134 132 0
-244 134 132 0
-244 -134 -132 0
-245 240 0
-245 132 0
-245 131 -134 0
-245 -131 134 0
245 -240 131 134 -132 0
245 -240 -131 -134 -132 0
246 243 -129 0
246 -243 129 0
-246 243 129 0
-246 -243 -129 0
247 132 -130 0
247 -132 130 0
-247 132 130 0
-247 -132 -130 0
-248 243 0
-248 130 0
-248 129 -132 0
-248 -129 132 0
248 -243 129 132 -130 0
248 -243 -129 -132 -130 0
249 246 -127 0
249 -246 127 0
-249 246 127 0
-249 -246 -127 0
250 130 -128 0
250 -130 128 0
-250 130 128 0
-250 -130 -128 0
-251 246 0
-251 128 0
-251 127 -130 0
-251 -127 130 0
251 -246 127 130 -128 0
251 -246 -127 -130 -128 0
252 249 -125 0
252 -249 125 0
-252 249 125 0
-252 -249 -125 0
253 128 -126 0
253 -128 126 0
-253 128 126 0
-253 -128 -126 0
-254 249 0
-254 126 0
-254 125 -128 0
-254 -125 128 0
254 -249 125 128 -126 0
254 -249 -125 -128 -126 0
255 252 -123 0
255 -252 123 0
-255 252 123 0
-255 -252 -123 0
256 126 -124 0
256 -126 124 0
-256 126 124 0
-256 -126 -124 0
-257 252 0
-257 124 0
-257 123 -126 0
-257 -123 126 0
257 -252 123 126 -124 0
257 -252 -123 -126 -124 0
258 255 -121 0
258 -255 121 0
-258 255 121 0
-258 -255 -121 0
259 124 -122 0
259 -124 122 0
-259 124 122 0
-259 -124 -122 0
-260 255 0
-260 122 0
-260 121 -124 0
-260 -121 124 0
260 -255 121 124 -122 0
260 -255 -121 -124 -122 0
261 258 -119 0
261 -258 119 0
-261 258 119 0
-261 -258 -119 0
262 122 -120 0
262 -122 120 0
-262 122 120 0
-262 -122 -120 0
-263 258 0
-263 120 0
-263 119 -122 0
-263 -119 122 0
263 -258 119 122 -120 0
263 -258 -119 -122 -120 0
264 261 -117 0
264 -261 117 0
-264 261 117 0
-264 -261 -117 0
265 120 -118 0
265 -120 118 0
-265 120 118 0
-265 -120 -118 0
-266 261 0
-266 118 0
-266 117 -120 0
-266 -117 120 0
266 -261 117 120 -118 0
266 -261 -117 -120 -118 0
267 264 -115 0
267 -264 115 0
-267 264 115 0
-267 -264 -115 0
268 118 -116 0
268 -118 116 0
-268 118 116 0
-268 -118 -116 0
-269 264 0
-269 116 0
-269 115 -118 0
-269 -115 118 0
269 -264 115 118 -116 0
269 -264 -115 -118 -116 0
270 267 -113 0
270 -267 113 0
-270 267 113 0
-270 -267 -113 0
271 116 -114 0
271 -116 114 0
-271 116 114 0
-271 -116 -114 0
-272 267 0
-272 114 0
-272 113 -116 0
-272 -113 116 0
272 -267 113 116 -114 0
272 -267 -113 -116 -114 0
273 270 -111 0
273 -270 111 0
-273 270 111 0
-273 -270 -111 0
274 114 -112 0
274 -114 112 0
-274 114 112 0
-274 -114 -112 0
-275 270 0
-275 112 0
-275 111 -114 0
-275 -111 114 0
275 -270 111 114 -112 0
275 -270 -111 -114 -112 0
276 273 -109 0
276 -273 109 0
-276 273 109 0
-276 -273 -109 0
277 112 -110 0
277 -112 110 0
-277 112 110 0
-277 -112 -110 0
-278 273 0
-278 110 0
-278 109 -112 0
-278 -109 112 0
278 -273 109 112 -110 0
278 -273 -109 -112 -110 0
279 276 -107 0
279 -276 107 0
-279 276 107 0
-279 -276 -107 0
280 110 -108 0
280 -110 108 0
-280 110 108 0
-280 -110 -108 0
-281 276 0
-281 108 0
-281 107 -110 0
-281 -107 110 0
281 -276 107 110 -108 0
281 -276 -107 -110 -108 0
282 279 -105 0
282 -279 105 0
-282 279 105 0
-282 -279 -105 0
283 108 -106 0
283 -108 106 0
-283 108 106 0
-283 -108 -106 0
-284 279 0
-284 106 0
-284 105 -108 0
-284 -105 108 0
284 -279 105 108 -106 0
284 -279 -105 -108 -106 0
285 282 -103 0
285 -282 103 0
-285 282 103 0
-285 -282 -103 0
286 106 -104 0
286 -106 104 0
-286 106 104 0
-286 -106 -104 0
-287 282 0
-287 104 0
-287 103 -106 0
-287 -103 106 0
287 -282 103 106 -104 0
287 -282 -103 -106 -104 0
288 285 -101 0
288 -285 101 0
-288 285 101 0
-288 -285 -101 0
289 104 -102 0
289 -104 102 0
-289 104 102 0
-289 -104 -102 0
-290 285 0
-290 102 0
-290 101 -104 0
-290 -101 104 0
290 -285 101 104 -102 0
290 -285 -101 -104 -102 0
291 288 -99 0
291 -288 99 0
-291 288 99 0
-291 -288 -99 0
292 102 -100 0
292 -102 100 0
-292 102 100 0
-292 -102 -100 0
-293 288 0
-293 100 0
-293 99 -102 0
-293 -99 102 0
293 -288 99 102 -100 0
293 -288 -99 -102 -100 0
294 291 -97 0
294 -291 97 0
-294 291 97 0
-294 -291 -97 0
295 100 -98 0
295 -100 98 0
-295 100 98 0
-295 -100 -98 0
-296 291 0
-296 98 0
-296 97 -100 0
-296 -97 100 0
296 -291 97 100 -98 0
296 -291 -97 -100 -98 0
297 294 -95 0
297 -294 95 0
-297 294 95 0
-297 -294 -95 0
298 98 -96 0
298 -98 96 0
-298 98 96 0
-298 -98 -96 0
-299 294 0
-299 96 0
-299 95 -98 0
-299 -95 98 0
299 -294 95 98 -96 0
299 -294 -95 -98 -96 0
300 297 -93 0
300 -297 93 0
-300 297 93 0
-300 -297 -93 0
301 96 -94 0
301 -96 94 0
-301 96 94 0
-301 -96 -94 0
-302 297 0
-302 94 0
-302 93 -96 0
-302 -93 96 0
302 -297 93 96 -94 0
302 -297 -93 -96 -94 0
303 300 -91 0
303 -300 91 0
-303 300 91 0
-303 -300 -91 0
304 94 -92 0
304 -94 92 0
-304 94 92 0
-304 -94 -92 0
-305 300 0
-305 92 0
-305 91 -94 0
-305 -91 94 0
305 -300 91 94 -92 0
305 -300 -91 -94 -92 0
306 303 -89 0
306 -303 89 0
-306 303 89 0
-306 -303 -89 0
307 92 -90 0
307 -92 90 0
-307 92 90 0
-307 -92 -90 0
-308 303 0
-308 90 0
-308 89 -92 0
-308 -89 92 0
308 -303 89 92 -90 0
308 -303 -89 -92 -90 0
309 306 -87 0
309 -306 87 0
-309 306 87 0
-309 -306 -87 0
310 90 -88 0
310 -90 88 0
-310 90 88 0
-310 -90 -88 0
-311 306 0
-311 88 0
-311 87 -90 0
-311 -87 90 0
311 -306 87 90 -88 0
311 -306 -87 -90 -88 0
312 309 -85 0
312 -309 85 0
-312 309 85 0
-312 -309 -85 0
313 88 -86 0
313 -88 86 0
-313 88 86 0
-313 -88 -86 0
-314 309 0
-314 86 0
-314 85 -88 0
-314 -85 88 0
314 -309 85 88 -86 0
314 -309 -85 -88 -86 0
315 312 -83 0
315 -312 83 0
-315 312 83 0
-315 -312 -83 0
316 86 -84 0
316 -86 84 0
-316 86 84 0
-316 -86 -84 0
-317 312 0
-317 84 0
-317 83 -86 0
-317 -83 86 0
317 -312 83 86 -84 0
317 -312 -83 -86 -84 0
318 315 -81 0
318 -315 81 0
-318 315 81 0
-318 -315 -81 0
319 84 -82 0
319 -84 82 0
-319 84 82 0
-319 -84 -82 0
-320 315 0
-320 82 0
-320 81 -84 0
-320 -81 84 0
320 -315 81 84 -82 0
320 -315 -81 -84 -82 0
321 318 -79 0
321 -318 79 0
-321 318 79 0
-321 -318 -79 0
322 82 -80 0
322 -82 80 0
-322 82 80 0
-322 -82 -80 0
-323 318 0
-323 80 0
-323 79 -82 0
-323 -79 82 0
323 -318 79 82 -80 0
323 -318 -79 -82 -80 0
324 321 -77 0
324 -321 77 0
-324 321 77 0
-324 -321 -77 0
325 80 -78 0
325 -80 78 0
-325 80 78 0
-325 -80 -78 0
-326 321 0
-326 78 0
-326 77 -80 0
-326 -77 80 0
326 -321 77 80 -78 0
326 -321 -77 -80 -78 0
327 324 -75 0
327 -324 75 0
-327 324 75 0
-327 -324 -75 0
328 78 -76 0
328 -78 76 0
-328 78 76 0
-328 -78 -76 0
-329 324 0
-329 76 0
-329 75 -78 0
-329 -75 78 0
329 -324 75 78 -76 0
329 -324 -75 -78 -76 0
330 327 -73 0
330 -327 73 0
-330 327 73 0
-330 -327 -73 0
331 76 -74 0
331 -76 74 0
-331 76 74 0
-331 -76 -74 0
-332 327 0
-332 74 0
-332 73 -76 0
-332 -73 76 0
332 -327 73 76 -74 0
332 -327 -73 -76 -74 0
333 330 -71 0
333 -330 71 0
-333 330 71 0
-333 -330 -71 0
334 74 -72 0
334 -74 72 0
-334 74 72 0
-334 -74 -72 0
-335 330 0
-335 72 0
-335 71 -74 0
-335 -71 74 0
335 -330 71 74 -72 0
335 -330 -71 -74 -72 0
336 333 -69 0
336 -333 69 0
-336 333 69 0
-336 -333 -69 0
337 72 -70 0
337 -72 70 0
-337 72 70 0
-337 -72 -70 0
-338 333 0
-338 70 0
-338 69 -72 0
-338 -69 72 0
338 -333 69 72 -70 0
338 -333 -69 -72 -70 0
339 336 -67 0
339 -336 67 0
-339 336 67 0
-339 -336 -67 0
340 70 -68 0
340 -70 68 0
-340 70 68 0
-340 -70 -68 0
-341 336 0
-341 68 0
-341 67 -70 0
-341 -67 70 0
341 -336 67 70 -68 0
341 -336 -67 -70 -68 0
342 339 -65 0
342 -339 65 0
-342 339 65 0
-342 -339 -65 0
343 68 -66 0
343 -68 66 0
-343 68 66 0
-343 -68 -66 0
-344 339 0
-344 66 0
-344 65 -68 0
-344 -65 68 0
344 -339 65 68 -66 0
344 -339 -65 -68 -66 0
345 342 -63 0
345 -342 63 0
-345 342 63 0
-345 -342 -63 0
346 66 -64 0
346 -66 64 0
-346 66 64 0
-346 -66 -64 0
-347 342 0
-347 64 0
-347 63 -66 0
-347 -63 66 0
347 -342 63 66 -64 0
347 -342 -63 -66 -64 0
348 345 -61 0
348 -345 61 0
-348 345 61 0
-348 -345 -61 0
349 64 -62 0
349 -64 62 0
-349 64 62 0
-349 -64 -62 0
-350 345 0
-350 62 0
-350 61 -64 0
-350 -61 64 0
350 -345 61 64 -62 0
350 -345 -61 -64 -62 0
351 348 -59 0
351 -348 59 0
-351 348 59 0
-351 -348 -59 0
352 62 -60 0
352 -62 60 0
-352 62 60 0
-352 -62 -60 0
-353 348 0
-353 60 0
-353 59 -62 0
-353 -59 62 0
353 -348 59 62 -60 0
353 -348 -59 -62 -60 0
354 351 -57 0
354 -351 57 0
-354 351 57 0
-354 -351 -57 0
355 60 -58 0
355 -60 58 0
-355 60 58 0
-355 -60 -58 0
-356 351 0
-356 58 0
-356 57 -60 0
-356 -57 60 0
356 -351 57 60 -58 0
356 -351 -57 -60 -58 0
357 354 -55 0
357 -354 55 0
-357 354 55 0
-357 -354 -55 0
358 58 -56 0
358 -58 56 0
-358 58 56 0
-358 -58 -56 0
-359 354 0
-359 56 0
-359 55 -58 0
-359 -55 58 0
359 -354 55 58 -56 0
359 -354 -55 -58 -56 0
360 357 -53 0
360 -357 53 0
-360 357 53 0
-360 -357 -53 0
361 56 -54 0
361 -56 54 0
-361 56 54 0
-361 -56 -54 0
-362 357 0
-362 54 0
-362 53 -56 0
-362 -53 56 0
362 -357 53 56 -54 0
362 -357 -53 -56 -54 0
363 360 -51 0
363 -360 51 0
-363 360 51 0
-363 -360 -51 0
364 54 -52 0
364 -54 52 0
-364 54 52 0
-364 -54 -52 0
-365 360 0
-365 52 0
-365 51 -54 0
-365 -51 54 0
365 -360 51 54 -52 0
365 -360 -51 -54 -52 0
366 363 -49 0
366 -363 49 0
-366 363 49 0
-366 -363 -49 0
367 52 -50 0
367 -52 50 0
-367 52 50 0
-367 -52 -50 0
-368 363 0
-368 50 0
-368 49 -52 0
-368 -49 52 0
368 -363 49 52 -50 0
368 -363 -49 -52 -50 0
369 366 -47 0
369 -366 47 0
-369 366 47 0
-369 -366 -47 0
370 50 -48 0
370 -50 48 0
-370 50 48 0
-370 -50 -48 0
-371 366 0
-371 48 0
-371 47 -50 0
-371 -47 50 0
371 -366 47 50 -48 0
371 -366 -47 -50 -48 0
372 369 -45 0
372 -369 45 0
-372 369 45 0
-372 -369 -45 0
373 48 -46 0
373 -48 46 0
-373 48 46 0
-373 -48 -46 0
-374 369 0
-374 46 0
-374 45 -48 0
-374 -45 48 0
374 -369 45 48 -46 0
374 -369 -45 -48 -46 0
375 372 -43 0
375 -372 43 0
-375 372 43 0
-375 -372 -43 0
376 46 -44 0
376 -46 44 0
-376 46 44 0
-376 -46 -44 0
-377 372 0
-377 44 0
-377 43 -46 0
-377 -43 46 0
377 -372 43 46 -44 0
377 -372 -43 -46 -44 0
378 375 -41 0
378 -375 41 0
-378 375 41 0
-378 -375 -41 0
379 44 -42 0
379 -44 42 0
-379 44 42 0
-379 -44 -42 0
-380 375 0
-380 42 0
-380 41 -44 0
-380 -41 44 0
380 -375 41 44 -42 0
380 -375 -41 -44 -42 0
381 378 -39 0
381 -378 39 0
-381 378 39 0
-381 -378 -39 0
382 42 -40 0
382 -42 40 0
-382 42 40 0
-382 -42 -40 0
-383 378 0
-383 40 0
-383 39 -42 0
-383 -39 42 0
383 -378 39 42 -40 0
383 -378 -39 -42 -40 0
384 381 -37 0
384 -381 37 0
-384 381 37 0
-384 -381 -37 0
385 40 -38 0
385 -40 38 0
-385 40 38 0
-385 -40 -38 0
-386 381 0
-386 38 0
-386 37 -40 0
-386 -37 40 0
386 -381 37 40 -38 0
386 -381 -37 -40 -38 0
387 384 -35 0
387 -384 35 0
-387 384 35 0
-387 -384 -35 0
388 38 -36 0
388 -38 36 0
-388 38 36 0
-388 -38 -36 0
-389 384 0
-389 36 0
-389 35 -38 0
-389 -35 38 0
389 -384 35 38 -36 0
389 -384 -35 -38 -36 0
390 387 -33 0
390 -387 33 0
-390 387 33 0
-390 -387 -33 0
391 36 -34 0
391 -36 34 0
-391 36 34 0
-391 -36 -34 0
-392 387 0
-392 34 0
-392 33 -36 0
-392 -33 36 0
392 -387 33 36 -34 0
392 -387 -33 -36 -34 0
393 390 -31 0
393 -390 31 0
-393 390 31 0
-393 -390 -31 0
394 34 -32 0
394 -34 32 0
-394 34 32 0
-394 -34 -32 0
-395 390 0
-395 32 0
-395 31 -34 0
-395 -31 34 0
395 -390 31 34 -32 0
395 -390 -31 -34 -32 0
396 393 -29 0
396 -393 29 0
-396 393 29 0
-396 -393 -29 0
397 32 -30 0
397 -32 30 0
-397 32 30 0
-397 -32 -30 0
-398 393 0
-398 30 0
-398 29 -32 0
-398 -29 32 0
398 -393 29 32 -30 0
398 -393 -29 -32 -30 0
399 396 -27 0
399 -396 27 0
-399 396 27 0
-399 -396 -27 0
400 30 -28 0
400 -30 28 0
-400 30 28 0
-400 -30 -28 0
-401 396 0
-401 28 0
-401 27 -30 0
-401 -27 30 0
401 -396 27 30 -28 0
401 -396 -27 -30 -28 0
402 399 -25 0
402 -399 25 0
-402 399 25 0
-402 -399 -25 0
403 28 -26 0
403 -28 26 0
-403 28 26 0
-403 -28 -26 0
-404 399 0
-404 26 0
-404 25 -28 0
-404 -25 28 0
404 -399 25 28 -26 0
404 -399 -25 -28 -26 0
405 402 -23 0
405 -402 23 0
-405 402 23 0
-405 -402 -23 0
406 26 -24 0
406 -26 24 0
-406 26 24 0
-406 -26 -24 0
-407 402 0
-407 24 0
-407 23 -26 0
-407 -23 26 0
407 -402 23 26 -24 0
407 -402 -23 -26 -24 0
408 405 -21 0
408 -405 21 0
-408 405 21 0
-408 -405 -21 0
409 24 -22 0
409 -24 22 0
-409 24 22 0
-409 -24 -22 0
-410 405 0
-410 22 0
-410 21 -24 0
-410 -21 24 0
410 -405 21 24 -22 0
410 -405 -21 -24 -22 0
411 408 -19 0
411 -408 19 0
-411 408 19 0
-411 -408 -19 0
412 22 -20 0
412 -22 20 0
-412 22 20 0
-412 -22 -20 0
-413 408 0
-413 20 0
-413 19 -22 0
-413 -19 22 0
413 -408 19 22 -20 0
413 -408 -19 -22 -20 0
414 411 -17 0
414 -411 17 0
-414 411 17 0
-414 -411 -17 0
415 20 -18 0
415 -20 18 0
-415 20 18 0
-415 -20 -18 0
-416 411 0
-416 18 0
-416 17 -20 0
-416 -17 20 0
416 -411 17 20 -18 0
416 -411 -17 -20 -18 0
417 414 -15 0
417 -414 15 0
-417 414 15 0
-417 -414 -15 0
418 18 -16 0
418 -18 16 0
-418 18 16 0
-418 -18 -16 0
-419 414 0
-419 16 0
-419 15 -18 0
-419 -15 18 0
419 -414 15 18 -16 0
419 -414 -15 -18 -16 0
420 417 -13 0
420 -417 13 0
-420 417 13 0
-420 -417 -13 0
421 16 -14 0
421 -16 14 0
-421 16 14 0
-421 -16 -14 0
-422 417 0
-422 14 0
-422 13 -16 0
-422 -13 16 0
422 -417 13 16 -14 0
422 -417 -13 -16 -14 0
423 420 -11 0
423 -420 11 0
-423 420 11 0
-423 -420 -11 0
424 14 -12 0
424 -14 12 0
-424 14 12 0
-424 -14 -12 0
-425 420 0
-425 12 0
-425 11 -14 0
-425 -11 14 0
425 -420 11 14 -12 0
425 -420 -11 -14 -12 0
426 423 -9 0
426 -423 9 0
-426 423 9 0
-426 -423 -9 0
427 12 -10 0
427 -12 10 0
-427 12 10 0
-427 -12 -10 0
-428 423 0
-428 10 0
-428 9 -12 0
-428 -9 12 0
428 -423 9 12 -10 0
428 -423 -9 -12 -10 0
429 426 -7 0
429 -426 7 0
-429 426 7 0
-429 -426 -7 0
430 10 -8 0
430 -10 8 0
-430 10 8 0
-430 -10 -8 0
-431 426 0
-431 8 0
-431 7 -10 0
-431 -7 10 0
431 -426 7 10 -8 0
431 -426 -7 -10 -8 0
432 429 -5 0
432 -429 5 0
-432 429 5 0
-432 -429 -5 0
433 8 -6 0
433 -8 6 0
-433 8 6 0
-433 -8 -6 0
-434 429 0
-434 6 0
-434 5 -8 0
-434 -5 8 0
434 -429 5 8 -6 0
434 -429 -5 -8 -6 0
435 432 -3 0
435 -432 3 0
-435 432 3 0
-435 -432 -3 0
436 6 -4 0
436 -6 4 0
-436 6 4 0
-436 -6 -4 0
-437 432 0
-437 4 0
-437 3 -6 0
-437 -3 6 0
437 -432 3 6 -4 0
437 -432 -3 -6 -4 0
438 435 -1 0
438 -435 1 0
-438 435 1 0
-438 -435 -1 0
439 4 -2 0
439 -4 2 0
-439 4 2 0
-439 -4 -2 0
-440 435 0
-440 2 0
-440 1 -4 0
-440 -1 4 0
440 -435 1 4 -2 0
440 -435 -1 -4 -2 0
-438 0
-435 0
-439 0
-432 0
-436 0
-429 0
-433 0
-426 0
-430 0
-423 0
-427 0
-420 0
-424 0
-417 0
-421 0
-414 0
-418 0
-411 0
-415 0
-408 0
-412 0
-405 0
-409 0
-402 0
-406 0
-399 0
-403 0
-396 0
-400 0
-393 0
-397 0
-390 0
-394 0
-387 0
-391 0
-384 0
-388 0
-381 0
-385 0
-378 0
-382 0
-375 0
-379 0
-372 0
-376 0
-369 0
-373 0
-366 0
-370 0
-363 0
-367 0
-360 0
-364 0
-357 0
-361 0
-354 0
-358 0
-351 0
-355 0
-348 0
-352 0
-345 0
-349 0
-342 0
-346 0
-339 0
-343 0
-336 0
-340 0
-333 0
-337 0
-330 0
-334 0
-327 0
-331 0
-324 0
-328 0
-321 0
-325 0
-318 0
-322 0
-315 0
-319 0
-312 0
-316 0
-309 0
-313 0
-306 0
-310 0
-303 0
-307 0
-300 0
-304 0
-297 0
-301 0
-294 0
-298 0
-291 0
-295 0
-288 0
-292 0
-285 0
-289 0
-282 0
-286 0
-279 0
-283 0
-276 0
-280 0
-273 0
-277 0
-270 0
-274 0
-267 0
-271 0
-264 0
-268 0
-261 0
-265 0
-258 0
-262 0
-255 0
-259 0
-252 0
-256 0
-249 0
-253 0
-246 0
-250 0
-243 0
-247 0
-240 0
-244 0
-237 0
-241 0
-234 0
-238 0
-231 0
-235 0
-228 0
-232 0
-225 0
-229 0
-222 0
-226 0
-219 0
-223 0
-216 0
-220 0
-213 0
-217 0
-210 0
-214 0
-207 0
-211 0
-204 0
-208 0
-201 0
-205 0
-198 0
-202 0
-195 0
-199 0
-192 0
-196 0
-189 0
-193 0
-186 0
-190 0
-183 0
-187 0
-177 0
-184 0
